DATASET = "thpack7";
INSTANCE = "044";

WIDTH = 233;
HEIGHT = 220;
LENGTH = 587;

NO_OF_SHAPES = 20;
size = [|
  114,67,25 |
  92,79,25 |
  89,87,36 |
  95,71,36 |
  90,83,43 |
  93,39,28 |
  69,54,31 |
  107,61,37 |
  98,52,40 |
  83,69,60 |
  98,63,58 |
  45,40,26 |
  63,44,36 |
  96,56,43 |
  88,42,35 |
  40,37,36 |
  97,74,67 |
  76,45,42 |
  64,43,42 |
  91,53,37 |
|];

verticality = [|
  0,0,1 |
  0,0,1 |
  0,0,1 |
  0,1,1 |
  0,1,1 |
  0,1,1 |
  0,1,1 |
  0,1,1 |
  0,1,1 |
  1,1,1 |
  1,1,1 |
  1,1,1 |
  1,1,1 |
  0,1,1 |
  0,1,1 |
  1,1,1 |
  1,1,1 |
  1,1,1 |
  1,1,1 |
  0,1,1 |
|];

box_count = [
  13,
  12,
  12,
  3,
  5,
  11,
  11,
  3,
  8,
  6,
  9,
  9,
  9,
  8,
  9,
  11,
  6,
  3,
  4,
  4,
];
